p cnf 30 78
a 4 7 0
e 1 2 3 5 6 8 9 10 11 12 13 14 15 16 17 18 19 20 21 22 23 24 25 26 27 28 29 30 0
-3 -1 0
-3 -2 0
1 2 3 0
4 3 0
4 -1 0
-3 1 -4 0
-6 -4 0
-6 -5 0
4 5 6 0
-10 -9 0
-10 -1 0
9 1 10 0
-8 10 -11 0
8 -10 -11 0
-8 -10 11 0
8 10 11 0
12 -7 0
12 -11 0
7 11 -12 0
13 6 0
13 12 0
-6 -12 -13 0
-15 -7 0
-15 -14 0
7 14 15 0
-16 3 0
-16 15 0
-3 -15 16 0
-17 -8 0
-17 -16 0
8 16 17 0
3 -2 -18 0
-3 2 -18 0
3 2 18 0
-3 -2 18 0
17 -18 -19 0
-17 18 -19 0
17 18 19 0
-17 -18 19 0
20 3 0
20 -2 0
-3 2 -20 0
-21 19 0
-21 -20 0
-19 20 21 0
-13 -21 -22 0
13 21 -22 0
-13 21 22 0
13 -21 22 0
-23 -10 0
-23 2 0
10 -2 23 0
-24 14 0
-24 -1 0
-14 1 24 0
25 -14 0
25 24 0
14 -24 -25 0
-26 -23 0
-26 25 0
23 -25 26 0
-27 22 0
-27 26 0
-22 -26 27 0
-29 -2 0
-29 -28 0
2 28 29 0
-30 -27 0
-30 -29 0
27 29 30 0
-10 -5 2 22 19 16 0
26 3 19 1 24 0
30 -16 22 -12 -25 0
5 22 16 -8 -2 -20 -18 0
13 -24 12 21 1 0
-17 -8 20 0
6 12 -14 0
30 0
